language ESSENCE' 1.0

letting network_ExplicitWithFlagsR6_Flags be
        [1, 1, 1, 1, 1, 1, 1, 1, 1, 1, 1, 1, 1, 1, 1, 1, 1, 1, 1, 1, 1, 1; int(1..22)]
letting network_ExplicitWithFlagsR6_Values_ExplicitVarSizeWithDummy be
        [[1, 2, 3, 4, 5, 6, 7, 8, 9, 10, 11, 12, 13, 14, 15, 16, 17, 18, 19, 20, 21, 22; int(1..22)],
         [1, 2, 3, 4, 5, 6, 7, 8, 9, 10, 11, 12, 13, 14, 15, 16, 17, 18, 19, 20, 21, 23; int(1..22)],
         [1, 2, 3, 4, 5, 6, 7, 8, 9, 10, 11, 12, 13, 14, 15, 16, 17, 18, 19, 20, 21, 24; int(1..22)],
         [1, 2, 3, 4, 5, 6, 7, 8, 9, 10, 11, 12, 13, 14, 15, 16, 17, 18, 19, 20, 21, 25; int(1..22)],
         [1, 2, 3, 4, 5, 6, 7, 8, 9, 10, 11, 12, 13, 14, 15, 16, 17, 18, 19, 20, 21, 26; int(1..22)],
         [1, 2, 3, 4, 5, 6, 7, 8, 9, 10, 11, 12, 13, 14, 15, 16, 17, 18, 19, 20, 21, 27; int(1..22)],
         [1, 2, 3, 4, 5, 6, 7, 8, 9, 10, 11, 12, 13, 14, 15, 16, 17, 18, 19, 20, 21, 28; int(1..22)],
         [1, 2, 3, 4, 5, 6, 7, 8, 9, 10, 11, 12, 13, 14, 15, 16, 17, 18, 19, 20, 21, 29; int(1..22)],
         [1, 2, 3, 4, 5, 6, 7, 8, 9, 10, 11, 12, 13, 14, 15, 16, 17, 18, 19, 20, 21, 30; int(1..22)],
         [1, 2, 3, 4, 5, 6, 7, 8, 9, 10, 11, 12, 13, 14, 15, 16, 17, 18, 19, 20, 21, 31; int(1..22)],
         [1, 2, 3, 4, 5, 6, 7, 8, 9, 10, 11, 12, 13, 14, 15, 16, 17, 18, 19, 20, 22, 23; int(1..22)],
         [1, 2, 3, 4, 5, 6, 7, 8, 9, 10, 11, 12, 13, 14, 15, 16, 17, 18, 19, 20, 22, 24; int(1..22)],
         [1, 2, 3, 4, 5, 6, 7, 8, 9, 10, 11, 12, 13, 14, 15, 16, 17, 18, 19, 20, 22, 25; int(1..22)],
         [1, 2, 3, 4, 5, 6, 7, 8, 9, 10, 11, 12, 13, 14, 15, 16, 17, 18, 19, 20, 22, 26; int(1..22)],
         [1, 2, 3, 4, 5, 6, 7, 8, 9, 10, 11, 12, 13, 14, 15, 16, 17, 18, 19, 20, 22, 27; int(1..22)],
         [1, 2, 3, 4, 5, 6, 7, 8, 9, 10, 11, 12, 13, 14, 15, 16, 17, 18, 19, 20, 22, 28; int(1..22)],
         [1, 2, 3, 4, 5, 6, 7, 8, 9, 10, 11, 12, 13, 14, 15, 16, 17, 18, 19, 20, 22, 29; int(1..22)],
         [1, 2, 3, 4, 5, 6, 7, 8, 9, 10, 11, 12, 13, 14, 15, 16, 17, 18, 19, 20, 22, 30; int(1..22)],
         [1, 2, 3, 4, 5, 6, 7, 8, 9, 10, 11, 12, 13, 14, 15, 16, 17, 18, 19, 20, 22, 31; int(1..22)],
         [1, 2, 3, 4, 5, 6, 7, 8, 9, 10, 11, 12, 13, 14, 15, 16, 17, 18, 19, 20, 23, 24; int(1..22)],
         [1, 2, 3, 4, 5, 6, 7, 8, 9, 10, 11, 12, 13, 14, 15, 16, 17, 18, 19, 20, 23, 25; int(1..22)],
         [1, 2, 3, 4, 5, 6, 23, 24, 25, 26, 28, 29, 30, 31, 31, 31, 31, 31, 31, 31, 31, 31; int(1..22)];
             int(1..22)]
$ Visualisation for network_ExplicitWithFlagsR6_Values_ExplicitVarSizeWithDummy
$  1  2  3  4  5  6  7  8  9 10 11 12 13 14 15 16 17 18 19 20 21 22
$  1  2  3  4  5  6  7  8  9 10 11 12 13 14 15 16 17 18 19 20 21 23
$  1  2  3  4  5  6  7  8  9 10 11 12 13 14 15 16 17 18 19 20 21 24
$  1  2  3  4  5  6  7  8  9 10 11 12 13 14 15 16 17 18 19 20 21 25
$  1  2  3  4  5  6  7  8  9 10 11 12 13 14 15 16 17 18 19 20 21 26
$  1  2  3  4  5  6  7  8  9 10 11 12 13 14 15 16 17 18 19 20 21 27
$  1  2  3  4  5  6  7  8  9 10 11 12 13 14 15 16 17 18 19 20 21 28
$  1  2  3  4  5  6  7  8  9 10 11 12 13 14 15 16 17 18 19 20 21 29
$  1  2  3  4  5  6  7  8  9 10 11 12 13 14 15 16 17 18 19 20 21 30
$  1  2  3  4  5  6  7  8  9 10 11 12 13 14 15 16 17 18 19 20 21 31
$  1  2  3  4  5  6  7  8  9 10 11 12 13 14 15 16 17 18 19 20 22 23
$  1  2  3  4  5  6  7  8  9 10 11 12 13 14 15 16 17 18 19 20 22 24
$  1  2  3  4  5  6  7  8  9 10 11 12 13 14 15 16 17 18 19 20 22 25
$  1  2  3  4  5  6  7  8  9 10 11 12 13 14 15 16 17 18 19 20 22 26
$  1  2  3  4  5  6  7  8  9 10 11 12 13 14 15 16 17 18 19 20 22 27
$  1  2  3  4  5  6  7  8  9 10 11 12 13 14 15 16 17 18 19 20 22 28
$  1  2  3  4  5  6  7  8  9 10 11 12 13 14 15 16 17 18 19 20 22 29
$  1  2  3  4  5  6  7  8  9 10 11 12 13 14 15 16 17 18 19 20 22 30
$  1  2  3  4  5  6  7  8  9 10 11 12 13 14 15 16 17 18 19 20 22 31
$  1  2  3  4  5  6  7  8  9 10 11 12 13 14 15 16 17 18 19 20 23 24
$  1  2  3  4  5  6  7  8  9 10 11 12 13 14 15 16 17 18 19 20 23 25
$  1  2  3  4  5  6 23 24 25 26 28 29 30 31 31 31 31 31 31 31 31 31

